examples/dis/graph-20-44.param
$ generated by rg.pl with seed 44
letting n be 20
$ 33 edges
letting E be {{3,17},{6,10},{2,8},{9,12},{12,17},{9,13},{13,15},{3,9},{2,18},{1,7},{10,16},{1,14},{3,7},{13,18},{9,15},{1,10},{11,17},{11,15},{4,17},{7,9},{13,16},{3,6},{2,6},{15,18},{8,17},{13,19},{12,18},{12,16},{5,10},{9,14},{15,16},{3,15},{1,17}}
